(set-logic QF_NRA)
(set-info :source |Benchmarks generated from hycomp (https://es-static.fbk.eu/tools/hycomp/). BMC instances of non-linear hybrid automata taken from: Alessandro Cimatti, Sergio Mover, Stefano Tonetta, A quantifier-free SMT encoding of non-linear hybrid automata, FMCAD 2012 and Alessandro Cimatti, Sergio Mover, Stefano Tonetta, Quantier-free encoding of invariants for Hybrid Systems, Formal Methods in System Design. This instance solves a BMC problem of depth 0 and uses the quantifier free encoding encoding. Contacts: Sergio Mover (mover@fbk.eu), Stefano Tonetta (tonettas@fbk.eu), Alessandro Cimatti (cimatti@fbk.eu).|)
(set-info :smt-lib-version 2.0)
(set-info :category "industrial")
(set-info :status unsat)
;; MathSAT API call trace
;; generated on Mon Mar 19 10:49:53 2012
(declare-fun train2.mode.0__AT0 () Bool)
(declare-fun train1.front_position__AT0 () Real)
(declare-fun train1.speed__AT0 () Real)
(declare-fun train2.event_is_timed__AT0 () Bool)
(declare-fun train2.speed__AT0 () Real)
(declare-fun train2.acceleration__AT0 () Real)
(declare-fun train1.timer__AT0 () Real)
(declare-fun train1.mode.0__AT0 () Bool)
(declare-fun train1.event_is_timed__AT0 () Bool)
(declare-fun train2.time__AT0 () Real)
(declare-fun train2.delta__AT0 () Real)
(declare-fun train2.timer__AT0 () Real)
(declare-fun train1.time__AT0 () Real)
(declare-fun train1.delta__AT0 () Real)
(declare-fun train2.front_position__AT0 () Real)
(declare-fun train1.acceleration__AT0 () Real)
(assert (let ((.def_170 (+ train2.timer__AT0 train2.delta__AT0)))
(let ((.def_173 (<= .def_170 8.0 )))
(let ((.def_85 (<= train2.timer__AT0 8.0 )))
(let ((.def_174 (and .def_85 .def_173)))
(let ((.def_171 (<= 0.0 .def_170)))
(let ((.def_84 (<= 0.0 train2.timer__AT0)))
(let ((.def_172 (and .def_84 .def_171)))
(let ((.def_175 (and .def_172 .def_174)))
(let ((.def_161 (* train2.acceleration__AT0 train2.delta__AT0)))
(let ((.def_162 (+ train2.speed__AT0 .def_161)))
(let ((.def_166 (<= .def_162 (/ 417 5))))
(let ((.def_81 (<= train2.speed__AT0 (/ 417 5))))
(let ((.def_167 (and .def_81 .def_166)))
(let ((.def_163 (<= 0.0 .def_162)))
(let ((.def_80 (<= 0.0 train2.speed__AT0)))
(let ((.def_164 (and .def_80 .def_163)))
(let ((.def_142 (* (/ 1 2) train2.acceleration__AT0)))
(let ((.def_149 (* 2.0 .def_142)))
(let ((.def_155 (* (- 1.0) .def_149)))
(let ((.def_156 (* train2.delta__AT0 .def_155)))
(let ((.def_157 (<= train2.speed__AT0 .def_156)))
(let ((.def_154 (<= train2.speed__AT0 0.0 )))
(let ((.def_158 (and .def_154 .def_157)))
(let ((.def_150 (* train2.delta__AT0 .def_149)))
(let ((.def_151 (+ train2.speed__AT0 .def_150)))
(let ((.def_152 (<= 0.0 .def_151)))
(let ((.def_153 (and .def_80 .def_152)))
(let ((.def_159 (or .def_153 .def_158)))
(let ((.def_144 (* train2.speed__AT0 train2.delta__AT0)))
(let ((.def_141 (* train2.delta__AT0 train2.delta__AT0)))
(let ((.def_143 (* .def_141 .def_142)))
(let ((.def_145 (+ .def_143 .def_144)))
(let ((.def_146 (+ train2.front_position__AT0 .def_145)))
(let ((.def_147 (<= 0.0 .def_146)))
(let ((.def_78 (<= 0.0 train2.front_position__AT0)))
(let ((.def_148 (and .def_78 .def_147)))
(let ((.def_160 (and .def_148 .def_159)))
(let ((.def_165 (and .def_160 .def_164)))
(let ((.def_168 (and .def_165 .def_167)))
(let ((.def_94 (<= train2.acceleration__AT0 (/ 7 10))))
(let ((.def_93 (<= (- (/ 7 10)) train2.acceleration__AT0)))
(let ((.def_95 (and .def_93 .def_94)))
(let ((.def_96 (or train2.mode.0__AT0 .def_95)))
(let ((.def_90 (<= train2.acceleration__AT0 0.0 )))
(let ((.def_89 (<= (- (/ 7 5)) train2.acceleration__AT0)))
(let ((.def_91 (and .def_89 .def_90)))
(let ((.def_46 (not train2.mode.0__AT0)))
(let ((.def_92 (or .def_46 .def_91)))
(let ((.def_97 (and .def_92 .def_96)))
(let ((.def_169 (and .def_97 .def_168)))
(let ((.def_176 (and .def_169 .def_175)))
(let ((.def_133 (+ train1.timer__AT0 train1.delta__AT0)))
(let ((.def_136 (<= .def_133 8.0 )))
(let ((.def_58 (<= train1.timer__AT0 8.0 )))
(let ((.def_137 (and .def_58 .def_136)))
(let ((.def_134 (<= 0.0 .def_133)))
(let ((.def_56 (<= 0.0 train1.timer__AT0)))
(let ((.def_135 (and .def_56 .def_134)))
(let ((.def_138 (and .def_135 .def_137)))
(let ((.def_124 (* train1.acceleration__AT0 train1.delta__AT0)))
(let ((.def_125 (+ train1.speed__AT0 .def_124)))
(let ((.def_129 (<= .def_125 (/ 417 5))))
(let ((.def_52 (<= train1.speed__AT0 (/ 417 5))))
(let ((.def_130 (and .def_52 .def_129)))
(let ((.def_126 (<= 0.0 .def_125)))
(let ((.def_48 (<= 0.0 train1.speed__AT0)))
(let ((.def_127 (and .def_48 .def_126)))
(let ((.def_105 (* (/ 1 2) train1.acceleration__AT0)))
(let ((.def_112 (* 2.0 .def_105)))
(let ((.def_118 (* (- 1.0) .def_112)))
(let ((.def_119 (* train1.delta__AT0 .def_118)))
(let ((.def_120 (<= train1.speed__AT0 .def_119)))
(let ((.def_117 (<= train1.speed__AT0 0.0 )))
(let ((.def_121 (and .def_117 .def_120)))
(let ((.def_113 (* train1.delta__AT0 .def_112)))
(let ((.def_114 (+ train1.speed__AT0 .def_113)))
(let ((.def_115 (<= 0.0 .def_114)))
(let ((.def_116 (and .def_48 .def_115)))
(let ((.def_122 (or .def_116 .def_121)))
(let ((.def_107 (* train1.speed__AT0 train1.delta__AT0)))
(let ((.def_102 (* train1.delta__AT0 train1.delta__AT0)))
(let ((.def_106 (* .def_102 .def_105)))
(let ((.def_108 (+ .def_106 .def_107)))
(let ((.def_109 (+ train1.front_position__AT0 .def_108)))
(let ((.def_110 (<= 0.0 .def_109)))
(let ((.def_54 (<= 0.0 train1.front_position__AT0)))
(let ((.def_111 (and .def_54 .def_110)))
(let ((.def_123 (and .def_111 .def_122)))
(let ((.def_128 (and .def_123 .def_127)))
(let ((.def_131 (and .def_128 .def_130)))
(let ((.def_73 (<= train1.acceleration__AT0 (/ 7 10))))
(let ((.def_72 (<= (- (/ 7 10)) train1.acceleration__AT0)))
(let ((.def_74 (and .def_72 .def_73)))
(let ((.def_75 (or train1.mode.0__AT0 .def_74)))
(let ((.def_66 (<= train1.acceleration__AT0 0.0 )))
(let ((.def_65 (<= (- (/ 7 5)) train1.acceleration__AT0)))
(let ((.def_67 (and .def_65 .def_66)))
(let ((.def_29 (not train1.mode.0__AT0)))
(let ((.def_68 (or .def_29 .def_67)))
(let ((.def_76 (and .def_68 .def_75)))
(let ((.def_132 (and .def_76 .def_131)))
(let ((.def_139 (and .def_132 .def_138)))
(let ((.def_177 (and .def_139 .def_176)))
(let ((.def_86 (and .def_84 .def_85)))
(let ((.def_82 (and .def_80 .def_81)))
(let ((.def_59 (and .def_56 .def_58)))
(let ((.def_53 (and .def_48 .def_52)))
(let ((.def_55 (and .def_53 .def_54)))
(let ((.def_60 (and .def_55 .def_59)))
(let ((.def_77 (and .def_60 .def_76)))
(let ((.def_79 (and .def_77 .def_78)))
(let ((.def_83 (and .def_79 .def_82)))
(let ((.def_87 (and .def_83 .def_86)))
(let ((.def_98 (and .def_87 .def_97)))
(let ((.def_43 (= train2.timer__AT0 0.0 )))
(let ((.def_40 (= train2.speed__AT0 0.0 )))
(let ((.def_37 (= train2.front_position__AT0 400.0 )))
(let ((.def_34 (= train2.time__AT0 0.0 )))
(let ((.def_26 (= train1.timer__AT0 0.0 )))
(let ((.def_23 (= train1.speed__AT0 0.0 )))
(let ((.def_20 (= train1.front_position__AT0 0.0 )))
(let ((.def_17 (= train1.time__AT0 0.0 )))
(let ((.def_19 (and .def_17 train1.event_is_timed__AT0)))
(let ((.def_21 (and .def_19 .def_20)))
(let ((.def_24 (and .def_21 .def_23)))
(let ((.def_27 (and .def_24 .def_26)))
(let ((.def_30 (and .def_27 .def_29)))
(let ((.def_32 (and .def_30 train2.event_is_timed__AT0)))
(let ((.def_35 (and .def_32 .def_34)))
(let ((.def_38 (and .def_35 .def_37)))
(let ((.def_41 (and .def_38 .def_40)))
(let ((.def_44 (and .def_41 .def_43)))
(let ((.def_47 (and .def_44 .def_46)))
(let ((.def_99 (and .def_47 .def_98)))
(let ((.def_11 (* (- 1.0) train2.front_position__AT0)))
(let ((.def_12 (+ train1.front_position__AT0 .def_11)))
(let ((.def_13 (<= .def_12 (- 200.0) )))
(let ((.def_14 (not .def_13)))
(let ((.def_100 (and .def_14 .def_99)))
(let ((.def_178 (and .def_100 .def_177)))
.def_178)))))))))))))))))))))))))))))))))))))))))))))))))))))))))))))))))))))))))))))))))))))))))))))))))))))))))))))))))))))))))))))))))))))))))))))
(check-sat)
(exit)
